GLPSOL--GLPK LP/MIP Solver 5.0
Parameter(s) specified in the command line:
 --lp ../modeles/4_409.lp --log 4_409.log
Reading problem data from '../modeles/4_409.lp'...
1653 rows, 3280 columns, 11472 non-zeros
1636 integer variables, all of which are binary
4943 lines were read
GLPK Integer Optimizer 5.0
1653 rows, 3280 columns, 11472 non-zeros
1636 integer variables, all of which are binary
Preprocessing...
1624 constraint coefficient(s) were reduced
1653 rows, 3276 columns, 11468 non-zeros
1636 integer variables, all of which are binary
Scaling...
 A: min|aij| =  2.391e-05  max|aij| =  4.000e+00  ratio =  1.673e+05
GM: min|aij| =  4.945e-02  max|aij| =  2.022e+01  ratio =  4.090e+02
EQ: min|aij| =  2.445e-03  max|aij| =  1.000e+00  ratio =  4.090e+02
2N: min|aij| =  1.530e-03  max|aij| =  1.707e+00  ratio =  1.116e+03
Constructing initial basis...
Size of triangular part is 1653
Solving LP relaxation...
GLPK Simplex Optimizer 5.0
1653 rows, 3276 columns, 11468 non-zeros
      0: obj =   8.000000000e+00 inf =   2.220e+02 (9)
    155: obj =   4.999551650e-01 inf =   0.000e+00 (0)
*   403: obj =  -1.999910111e+00 inf =   1.394e-15 (0)
OPTIMAL LP SOLUTION FOUND
Integer optimization begins...
Long-step dual simplex will be used
+   403: mip =     not found yet >=              -inf        (1; 0)
+   619: >>>>>  -1.999910111e+00 >=  -1.999910111e+00 < 0.1% (215; 0)
+   619: mip =  -1.999910111e+00 >=     tree is empty   0.0% (0; 429)
INTEGER OPTIMAL SOLUTION FOUND
Time used:   0.5 secs
Memory used: 4.9 Mb (5096444 bytes)
